(set-info :smt-lib-version 2.6)
(set-info :category "crafted")
(set-logic QF_FF)
(define-sort FF0 () (_ FiniteField 52435875175126190479447740508185965837690552500527637822603658699938581184513))
(declare-fun return_n4_alt () FF0)
(declare-fun x3_n1_alt () FF0)
(declare-fun mul_n6_alt () FF0)
(declare-fun mul_n5_alt () FF0)
(declare-fun x1_n0_alt () FF0)
(declare-fun x0_n2_alt () FF0)
(declare-fun return_n4 () FF0)
(declare-fun x3_n1 () FF0)
(declare-fun mul_n6 () FF0)
(declare-fun mul_n5 () FF0)
(declare-fun x1_n0 () FF0)
(declare-fun x0_n2 () FF0)
(declare-fun x2_n3_alt () FF0)
(declare-fun x2_n3 () FF0)
(assert 
  (let ((let0 (as ff1 FF0)))
  (let ((let1 (as ff52435875175126190479447740508185965837690552500527637822603658699938581184512 FF0)))
  (let ((let2 return_n4_alt))
  (let ((let3 (ff.mul let2 let1)))
  (let ((let4 (ff.add let3 let0)))
  (let ((let5 x3_n1_alt))
  (let ((let6 (ff.mul let5 let1)))
  (let ((let7 (ff.add let6 let0)))
  (let ((let8 mul_n6_alt))
  (let ((let9 (ff.mul let8 let7)))
  (let ((let10 (= let9 let4)))
  (let ((let11 mul_n5_alt))
  (let ((let12 x1_n0_alt))
  (let ((let13 (ff.mul let12 let1)))
  (let ((let14 (ff.add let13 let0)))
  (let ((let15 x0_n2_alt))
  (let ((let16 (ff.mul let15 let1)))
  (let ((let17 (ff.add let16 let0)))
  (let ((let18 (ff.mul let17 let14)))
  (let ((let19 (= let18 let11)))
  (let ((let20 (and let19 let10)))
  (let ((let21 return_n4))
  (let ((let22 (ff.mul let21 let1)))
  (let ((let23 (ff.add let22 let0)))
  (let ((let24 x3_n1))
  (let ((let25 (ff.mul let24 let1)))
  (let ((let26 (ff.add let25 let0)))
  (let ((let27 mul_n6))
  (let ((let28 (ff.mul let27 let26)))
  (let ((let29 (= let28 let23)))
  (let ((let30 mul_n5))
  (let ((let31 x1_n0))
  (let ((let32 (ff.mul let31 let1)))
  (let ((let33 (ff.add let32 let0)))
  (let ((let34 x0_n2))
  (let ((let35 (ff.mul let34 let1)))
  (let ((let36 (ff.add let35 let0)))
  (let ((let37 (ff.mul let36 let33)))
  (let ((let38 (= let37 let30)))
  (let ((let39 (and let38 let29)))
  (let ((let40 (= let21 let2)))
  (let ((let41 (not let40)))
  (let ((let42 (= let24 let5)))
  (let ((let43 (= let34 let15)))
  (let ((let44 (= let31 let12)))
  (let ((let45 x2_n3_alt))
  (let ((let46 x2_n3))
  (let ((let47 (= let46 let45)))
  (let ((let48 (and let47 let44 let43 let42)))
  (let ((let49 (and let48 let41 let39 let20)))
  let49
))))))))))))))))))))))))))))))))))))))))))))))))))
)
(check-sat)
